Solver command line: []

Read LP format model from file C:\Users\wlhlm\AppData\Local\Temp\tmpkuzd890o.pyomo.lp
Reading time = 75.49 seconds
objective: 1002984 rows, 875999 columns, 78984486 nonzeros
Set parameter MIPGap to value 0.03
Gurobi Optimizer version 12.0.1 build v12.0.1rc0 (win64 - Windows 11.0 (26100.2))

CPU model: Intel(R) Core(TM) Ultra 7 258V, instruction set [SSE2|AVX|AVX2]
Thread count: 8 physical cores, 8 logical processors, using up to 8 threads

Non-default parameters:
MIPGap  0.03

Optimize a model with 1002984 rows, 875999 columns and 78984486 nonzeros
Model fingerprint: 0xcfe3e301
Model has 8759 quadratic constraints
Variable types: 753360 continuous, 122639 integer (105120 binary)
Coefficient statistics:
  Matrix range     [8e-03, 2e+02]
  QMatrix range    [1e+00, 1e+00]
  Objective range  [1e-02, 5e+02]
  Bounds range     [1e+00, 3e+00]
  RHS range        [8e-05, 1e+04]
Presolve removed 96360 rows and 122640 columns (presolve time = 7s)...
Presolve removed 157680 rows and 122640 columns (presolve time = 18s)...
Presolve removed 617548 rows and 494907 columns (presolve time = 23s)...
Presolve removed 656935 rows and 529949 columns (presolve time = 29s)...
Presolve removed 678798 rows and 547469 columns (presolve time = 33s)...
Presolve removed 697010 rows and 554603 columns (presolve time = 35s)...
Presolve removed 697019 rows and 557388 columns (presolve time = 42s)...
Presolve removed 702641 rows and 560234 columns (presolve time = 46s)...
Presolve removed 702923 rows and 560516 columns (presolve time = 53s)...
Presolve removed 702923 rows and 560516 columns (presolve time = 57s)...
Presolve removed 702923 rows and 560516 columns (presolve time = 66s)...
Presolve removed 702923 rows and 560516 columns (presolve time = 70s)...
Presolve removed 711682 rows and 560516 columns (presolve time = 81s)...
Presolve removed 711682 rows and 560516 columns (presolve time = 86s)...
Presolve removed 711682 rows and 560517 columns (presolve time = 90s)...
Presolve removed 711682 rows and 560517 columns (presolve time = 102s)...
Presolve removed 798456 rows and 655935 columns
Presolve time: 103.66s
Presolved: 204528 rows, 220064 columns, 635081 nonzeros
Variable types: 148351 continuous, 71713 integer (62954 binary)
Performing another presolve...
Presolve removed 61319 rows and 61320 columns (presolve time = 7s)...
Presolve removed 61319 rows and 61320 columns
Presolve time: 7.08s
Deterministic concurrent LP optimizer: primal and dual simplex
Showing primal log only...


Root simplex log...

Iteration    Objective       Primal Inf.    Dual Inf.      Time
       0    5.6153597e+07   3.322199e+07   4.482091e+13    114s
   29115    5.9655551e+07   2.648648e+05   7.313492e+11    115s
Concurrent spin time: 0.01s

Solved with dual simplex

Root simplex log...

Iteration    Objective       Primal Inf.    Dual Inf.      Time
   63311    4.7736685e+07   0.000000e+00   0.000000e+00    117s

Root relaxation: objective 4.773668e+07, 63311 iterations, 3.56 seconds (4.38 work units)
Total elapsed time = 117.05s (DegenMoves)

    Nodes    |    Current Node    |     Objective Bounds      |     Work
 Expl Unexpl |  Obj  Depth IntInf | Incumbent    BestBd   Gap | It/Node Time

     0     0 4.7737e+07    0  420          - 4.7737e+07      -     -  119s
H    0     0                    4.789944e+07 4.7737e+07  0.34%     -  120s

Explored 1 nodes (71324 simplex iterations) in 121.30 seconds (65.90 work units)
Thread count was 8 (of 8 available processors)

Solution count 1: 4.78994e+07 

Optimal solution found (tolerance 3.00e-02)
Best objective 4.789944154936e+07, best bound 4.773668472938e+07, gap 0.3398%

